NAME : lin105.29605.tour
COMMENT : Cost = 6378_29605
COMMENT : Found by LKH [Keld Helsgaun] Thu Nov 16 17:27:04 2017
TYPE : TOUR
DIMENSION : 109
TOUR_SECTION
1
6
7
10
11
49
59
67
68
71
78
82
83
84
85
91
92
96
97
101
102
93
86
79
77
72
64
56
55
40
32
29
22
21
106
23
28
41
43
46
53
58
63
88
94
87
66
65
61
60
42
36
27
24
19
12
107
33
100
95
52
20
108
103
30
104
44
47
51
54
57
62
70
69
74
75
81
90
99
98
89
80
76
73
105
50
48
45
31
15
2
109
3
8
9
5
4
13
14
34
35
38
39
37
26
25
18
17
16
-1
EOF
